s td 28 4 30
b 1 3 8 12
b 2 6 8
b 3 15 17
b 4 9 26
b 5 8 9
b 6 10 27
b 7 10 11
b 8 11 19
b 9 14 19 25
b 10 5 30
b 11 1 15 25
b 12 4 12 16
b 13 7 22 24
b 14 14 15 18
b 15 13 14 15 25
b 16 20 21 22
b 17 20 22 24
b 18 5 23 28
b 19 8 13 15 25
b 20 8 12 13 15
b 21 5 16 28
b 22 2 5 16 20
b 23 5 13 29
b 24 2 5 15 16
b 25 5 13 15 16
b 26 12 13 15 16
b 27 13 15 16
b 28 15 16
1 20
2 20
3 27
4 5
5 20
6 7
7 8
8 9
9 15
10 24
11 19
12 26
13 17
14 15
15 19
16 17
17 22
18 21
19 20
20 26
21 24
22 24
23 25
24 25
25 27
26 27
27 28
